33D32945 STP File, STP Format Version 1.0

SECTION Comments
Name "edge_n15_d2_s37"
Problem "Euclidean Steiner Tree Problem"
Remark "Generated with STPGenerator. 2 dimensions."
END

SECTION Graph
Nodes 15
END

SECTION Coordinates
DD 0 0.2394123931 0.2394123931
DD 1 0.7611420498 0.7611420498
DD 2 0.1745217923 0.1745217923
DD 3 0.8194240331 0.8194240331
DD 4 0.0320747178 0.0320747178
DD 5 0.6424573714 0.6424573714
DD 6 0.3284930686 0.3284930686
DD 7 0.8837608927 0.8837608927
DD 8 0.2698044499 0.2698044499
DD 9 0.5980566296 0.5980566296
DD 10 0.3121092172 0.3121092172
DD 11 0.4504713320 0.4504713320
DD 12 0.8071258347 0.8071258347
DD 13 0.3703712553 0.3703712553
DD 14 0.6420550997 0.6420550997
END
